2204, 0, 0, 41, 2
2205, 0, 1, 61, 1
2206, 0, 2, 66, 3
2207, 0, 3, 38, 0
2208, 1, 0, 39, 2
2209, 1, 1, 53, 1
2210, 1, 2, 72, 3
2211, 1, 3, 87, 0
2212, 2, 0, 56, 0
2213, 2, 1, 91, 1
2214, 2, 2, 68, 2
2215, 2, 3, 57, 3
2216, 3, 0, 93, 1
2217, 3, 1, 76, 2
2218, 3, 2, 89, 0
2219, 3, 3, 85, 3
